100
120
100
100
99
99
98
98
98
98
98
97
97
96
95
95
95
93
93
91
89
89
88
88
87
87
87
86
84
84
84
84
83
83
83
83
81
79
77
76
74
73
71
70
69
69
68
68
68
66
66
64
64
64
64
63
61
61
60
60
60
60
59
58
58
56
56
56
54
54
51
51
50
50
48
48
47
46
45
45
43
43
43
42
42
41
40
37
36
36
36
36
34
33
33
33
33
32
31
31
30
30
